&CONTROL
  prefix='Mg2Si', 
  calculation='scf', 
  forc_conv_thr   =  0.0001
  etot_conv_thr   =  0.0001
  verbosity = 'high'
/

&SYSTEM
  ibrav= 2,
  celldm(1) = 12.032574,
  nat= 3,
  ntyp= 2, 
  ecutrho = 400.0,
  ecutwfc = 100.0,
  occupations = 'smearing',
  smearing = 'marzari-vanderbilt',
  degauss = 0.03,
  nbnd   = 24
 /

&ELECTRONS
  conv_thr        =  1e-08
  electron_maxstep =  200
/

ATOMIC_SPECIES
  Mg 24.305 Mg_ONCV_PBE-1.2.upf
  Si 28.086 Si_ONCV_PBE-1.2.upf

ATOMIC_POSITIONS crystal
  Si  0.0000000000  0.0000000000  0.0000000000
  Mg  0.2500000000  0.2500000000  0.2500000000
  Mg  0.7500000000  0.7500000000  0.7500000000

K_POINTS gamma

