#===============================================================================
# FHI-aims file: ./graph_ads/Cu_100/3A_full_go/control.in
# Created using the Atomic Simulation Environment (ASE)
# Thu Nov 24 11:24:23 2022
#===============================================================================
xc                                 pbe
use_local_index                    .true.
load_balancing                     .true.
frozen_core_scf                    .true.
frozen_core_scf_cutoff             -400
k_grid                             4 4 1
spin                               collinear
default_initial_moment             0.01
relativistic                       atomic_zora scalar
occupation_type                    gaussian 0.1
sc_iter_limit                      500
many_body_dispersion_nl            beta=0.81
#===============================================================================

################################################################################
#
#  FHI-aims code project
#  VB, Fritz-Haber Institut, 2010
#
#  Suggested "light" defaults for Cu atom (to be pasted into control.in file)
#  Be sure to double-check any results obtained with these settings for post-processing,
#  e.g., with the "tight" defaults and larger basis sets.
#
################################################################################
  species        Cu1
#
    nucleus      29
    mass         63.546
#
    l_hartree    4
#
    cut_pot      3.5  1.5  1.0
    basis_dep_cutoff    1e-4
#
    radial_base        53 5.0
    radial_multiplier  1
    angular_grids       specified
      division   0.5231   50
      division   0.8642  110
      division   1.1767  194
      division   1.5041  302
#      division   1.9293  434
#      division   2.0065  590
#      division   2.0466  770
#      division   2.0877  974
#      division   2.4589 1202
      outer_grid   302
################################################################################
#
#  Definition of "minimal" basis
#
################################################################################
#     valence basis states
    valence      4  s   1.
    valence      3  p   6.
    valence      3  d  10.
#     ion occupancy
    ion_occ      4  s   0.
    ion_occ      3  p   6.
    ion_occ      3  d   9.
################################################################################
#
#  Suggested additional basis functions. For production calculations, 
#  uncomment them one after another (the most important basis functions are
#  listed first).
#
#  Constructed for dimers: 1.8, 2.2, 3.0, 4.0 Ang
#
################################################################################
#  "First tier" - improvements: -211.42 meV to -9.17 meV
     ionic 4 p auto
     hydro 4 f 7.4
     hydro 3 s 2.6
     hydro 3 d 5
#     hydro 5 g 10.4
#  "Second tier" - improvements: -2.49 meV to -1.08 meV 
#     hydro 4 p 5.8
#     hydro 3 d 2.7
#     hydro 6 h 15.2
#     hydro 5 s 10.8
#     hydro 4 f 16
#  "Third tier" - improvements: -0.50 meV to -0.21 meV
#     hydro 4 d 6
#     hydro 3 p 2.4
#     hydro 4 f 6.4
#     hydro 3 s 6.8
#     hydro 5 g 11.2
#  "Fourth tier" - improvements: -0.13 meV to -0.05 meV
#     hydro 4 p 7
#     hydro 4 s 4
#     hydro 6 h 14
#     hydro 4 d 8.6
#     hydro 5 f 15.2

hirshfeld_param 59.000 10.900 2.4000
################################################################################
#
#  FHI-aims code project
#  Volker Blum, 2017
#
#  Suggested "intermediate" defaults for Cu atom (to be pasted into control.in file)
#
################################################################################
  species        Cu
#
    nucleus      29
    mass         63.546
#
    l_hartree    6
#
    cut_pot      4.0  2.0  1.0
    basis_dep_cutoff    1e-4
#
    radial_base        53 7.0
    radial_multiplier  2
    angular_grids       specified
      division   0.3478   50
      division   0.6638  110
      division   0.9718  194
      division   1.1992  302
      division   1.5920  434
#      division   1.8557  590
#      division   2.0466  770
#      division   2.0877  974
#      division   2.4589 1202
      outer_grid   434
################################################################################
#
#  Definition of "minimal" basis
#
################################################################################
#     valence basis states
    valence      4  s   1.
    valence      3  p   6.
    valence      3  d  10.
#     ion occupancy
    ion_occ      4  s   0.
    ion_occ      3  p   6.
    ion_occ      3  d   9.
################################################################################
#
#  Suggested additional basis functions. For production calculations, 
#  uncomment them one after another (the most important basis functions are
#  listed first).
#
#  Constructed for dimers: 1.8, 2.2, 3.0, 4.0 Ang
#
################################################################################
#  "First tier" - improvements: -211.42 meV to -9.17 meV
     ionic 4 p auto
     hydro 4 f 7.4
     hydro 3 s 2.6
     hydro 3 d 5
  for_aux   hydro 5 g 10.4
#  "Second tier" - improvements: -2.49 meV to -1.08 meV 
#     hydro 4 p 5.8
#     hydro 3 d 2.7
#     hydro 6 h 15.2
#     hydro 5 s 10.8
#     hydro 4 f 16
#  "Third tier" - improvements: -0.50 meV to -0.21 meV
#     hydro 4 d 6
#     hydro 3 p 2.4
#     hydro 4 f 6.4
#     hydro 3 s 6.8
#     hydro 5 g 11.2
#  "Fourth tier" - improvements: -0.13 meV to -0.05 meV
#     hydro 4 p 7
#     hydro 4 s 4
#     hydro 6 h 14
#     hydro 4 d 8.6
#     hydro 5 f 15.2

hirshfeld_param 59.000 10.900 2.4000
################################################################################
#
#  FHI-aims code project
#  Volker Blum, 2017
#
#  Suggested "intermediate" defaults for C atom (to be pasted into control.in file)
#
################################################################################
  species        C
#     global species definitions
    nucleus             6
    mass                12.0107
#
    l_hartree           6
#
    cut_pot             4.0  2.0  1.0
    basis_dep_cutoff    1e-4
#
    radial_base         34 7.0
    radial_multiplier   2
    angular_grids specified
      division   0.2187   50
      division   0.4416  110
      division   0.6335  194
      division   0.7727  302
      division   0.8772  434
#      division   0.9334  590
#      division   0.9924  770
#      division   1.0230  974
#      division   1.5020 1202
#     outer_grid  974
      outer_grid  434
################################################################################
#
#  Definition of "minimal" basis
#
################################################################################
#     valence basis states
    valence      2  s   2.
    valence      2  p   2.
#     ion occupancy
    ion_occ      2  s   1.
    ion_occ      2  p   1.
################################################################################
#
#  Suggested additional basis functions. For production calculations, 
#  uncomment them one after another (the most important basis functions are
#  listed first).
#
#  Constructed for dimers: 1.0 A, 1.25 A, 1.5 A, 2.0 A, 3.0 A
#
################################################################################
#  "First tier" - improvements: -1214.57 meV to -155.61 meV
     hydro 2 p 1.7
     hydro 3 d 6
     hydro 2 s 4.9
#  "Second tier" - improvements: -67.75 meV to -5.23 meV
     hydro 4 f 9.8
#     hydro 3 p 5.2
#     hydro 3 s 4.3
  for_aux    hydro 5 g 14.4
#     hydro 3 d 6.2
#  "Third tier" - improvements: -2.43 meV to -0.60 meV
#     hydro 2 p 5.6
#     hydro 2 s 1.4
#     hydro 3 d 4.9
#     hydro 4 f 11.2
#  "Fourth tier" - improvements: -0.39 meV to -0.18 meV
#     hydro 2 p 2.1
#     hydro 5 g 16.4
#     hydro 4 d 13.2
#     hydro 3 s 13.6
#     hydro 4 f 17.6
#  Further basis functions - improvements: -0.08 meV and below
#     hydro 3 s 2
#     hydro 3 p 6
#     hydro 4 d 20
# Additional basis functions for atom with a core hole
     hydro 1 s 10.0
     hydro 1 s 8.0
     hydro 1 s 4.0
     hydro 2 s 6.0

################################################################################
#
#  FHI-aims code project
#  Volker Blum, 2017
#
#  Suggested "intermediate" defaults for H atom (to be pasted into control.in file)
#
################################################################################
  species        H
#     global species definitions
    nucleus             1
    mass                1.00794
#
    l_hartree           6
#
    cut_pot             4.0  2.0  1.0
    basis_dep_cutoff    1e-4
#     
    radial_base         24 7.0
    radial_multiplier   2
    angular_grids       specified
      division   0.1930   50
      division   0.3175  110
      division   0.4293  194
      division   0.5066  302
      division   0.5626  434
#      division   0.5922  590
#      division   0.6227  974
#      division   0.6868 1202
#      outer_grid  770
      outer_grid  434
################################################################################
#
#  Definition of "minimal" basis
#
################################################################################
#     valence basis states
    valence      1  s   1.
#     ion occupancy
    ion_occ      1  s   0.5
################################################################################
#
#  Suggested additional basis functions. For production calculations, 
#  uncomment them one after another (the most important basis functions are
#  listed first).
#
#  Basis constructed for dimers: 0.5 A, 0.7 A, 1.0 A, 1.5 A, 2.5 A
#
################################################################################
#  "First tier" - improvements: -1014.90 meV to -62.69 meV
     hydro 2 s 2.1
     hydro 2 p 3.5
#  "Second tier" - improvements: -12.89 meV to -1.83 meV
     hydro 1 s 0.85
#     hydro 2 p 3.7
#     hydro 2 s 1.2
  for_aux    hydro 3 d 7
#  "Third tier" - improvements: -0.25 meV to -0.12 meV
#     hydro 4 f 11.2
#     hydro 3 p 4.8
#     hydro 4 d 9
#     hydro 3 s 3.2
################################################################################
################################################################################
