&inputpp 
   outdir         = './'
   prefix         = 'Be'
   seedname       = 'Be'
   spin_component = 'none'
   write_mmn      = .true.
   write_amn      = .true.
   write_unk      = .true.
/
