&CONTROL
  calculation = 'scf'
  etot_conv_thr =   2.0000000000d-05
  forc_conv_thr =   1.0000000000d-04
  outdir = './'
  prefix = 'Be'
  tprnfor = .true.
  tstress = .true.
  verbosity = 'high'
/
&SYSTEM
  degauss =   1.4699723600d-02
  ecutwfc =   4.0000000000d+01
  ibrav = 0
  nat = 2
  ntyp = 1
  occupations = 'smearing'
  smearing = 'cold'
/
&ELECTRONS
  conv_thr =   4.0000000000d-10
  electron_maxstep = 80
  mixing_beta =   4.0000000000d-01
/
ATOMIC_SPECIES
Be     9.012182 Be_ONCV_PBE-1.2.upf
ATOMIC_POSITIONS crystal
Be           0.6666666667       0.3333333333       0.2500000000 
Be           0.3333333333       0.6666666667       0.7500000000 
K_POINTS gamma
CELL_PARAMETERS angstrom
     -1.1323913250      -1.9613593090      -0.0000000000
     -1.1323913250       1.9613593090       0.0000000000
      0.0000000000       0.0000000000      -3.5741024600

