%chk=ACEGUL.chk
#P B3LYP/6-31G*

Generated by Multiwfn

  2  1
N     -8.85445800    1.16769800   -0.82613100
C     -7.51188600    0.79604300   -1.39674800
C     -6.64062000    0.51301100   -0.14343300
O     -7.17789900    0.66140600    0.96160300
N     -5.38721700    0.13316700   -0.35345900
C     -4.46205400   -0.20831200    0.71651500
C     -3.20392200   -0.77263500    0.02766800
O     -3.12529600   -0.75732700   -1.19870700
N     -2.24661000   -1.24796200    0.85659800
C     -1.06313000   -1.97387400    0.37835200
C      0.26454300   -1.39546100    0.88306300
C      0.60957700   -0.02832200    0.27563600
N      1.91503200    0.47502200    0.71356300
C      3.06604500    0.08505400    0.12656900
O      3.12763100   -0.70786400   -0.81177900
C      4.35771500    0.70661500    0.69082000
N      5.44682100    0.15431500   -0.10026000
C      6.72205500    0.46195500    0.09443400
O      7.15763400    1.23824800    0.95444000
C      7.76176800   -0.21253700   -0.84052000
N      9.08126400    0.33625100   -0.36731300
H     -8.66790300    1.10940100    0.22378300
H     -9.60162300    0.51452400   -1.08076500
H     -9.15892900    2.11356800   -1.07514700
H     -7.61516300   -0.08204000   -2.03682300
H     -7.12388500    1.62710300   -1.98863200
H     -4.98249600   -0.00586500   -1.28265500
H     -4.91435800   -0.94591800    1.38898000
H     -4.21571600    0.67815000    1.31357400
H     -2.45176400   -1.29254900    1.84769600
H     -1.14662200   -3.02050700    0.69318000
H     -1.10966200   -1.95378900   -0.71279900
H      0.25647500   -1.32898800    1.97961800
H      1.05598800   -2.10413800    0.61469800
H      0.63528600   -0.10183900   -0.81527000
H     -0.13821400    0.72385000    0.54321900
H      1.95400500    1.10655900    1.50281100
H      4.48671000    0.45591700    1.75038000
H      4.33784700    1.79954800    0.60795100
H      5.11993800   -0.49151000   -0.82334900
H      7.60892000    0.05326200   -1.88810800
H      7.76108500   -1.29970500   -0.74300200
H      8.77579500    0.97687800    0.43098100
H      9.57746300    0.88065500   -1.07929300
H      9.71982600   -0.38170200   -0.01193900
 
