%chk=AGIDOM.chk
#P B3LYP/6-31G*

Generated by Multiwfn

 -1  1
C      3.60848600    0.84498700    0.62710000
O      2.42840700    0.19570600    1.09683300
C      1.43494600    0.09932700    0.16799800
O      1.54873000    0.54782400   -0.95634900
C      0.27652800   -0.64040400    0.67895200
N      0.40674300   -1.59164900    1.65535000
N     -0.72281000   -2.21841200    1.80116100
N     -1.60045200   -1.64877200    0.94015100
C     -1.04752100   -0.65458400    0.19783900
C     -1.77777700    0.11049800   -0.78260300
N     -1.34667100    1.43720400   -1.09423600
O     -0.71339900    2.04208200   -0.20642100
O     -1.60826600    1.94048100   -2.19131000
N     -2.99882000   -0.34174200   -1.29172000
O     -3.42611300   -1.46580400   -0.87278900
O     -3.66700900    0.32728600   -2.09394100
H      3.39139100    1.86850300    0.30595100
H      4.04766400    0.30428400   -0.21813300
H      4.29891300    0.84876500    1.47360000
H     -2.53297100   -2.00557300    0.76256800
 
