lattice_vector     12.71674440      0.00000000      0.00000000
lattice_vector      0.00000000     12.71674440      0.00000000
lattice_vector      0.00000000      0.00000000    100.00000000
atom       0.00000000      0.00000000      3.59683848 Cu1
atom       0.00000000      2.54334888      3.59683848 Cu1
atom       0.00000000      5.08669776      3.59683848 Cu1
atom       0.00000000      7.63004664      3.59683848 Cu1
atom       0.00000000     10.17339552      3.59683848 Cu1
atom       2.54334888      0.00000000      3.59683848 Cu1
atom       2.54334888      2.54334888      3.59683848 Cu1
atom       2.54334888      5.08669776      3.59683848 Cu1
atom       2.54334888      7.63004664      3.59683848 Cu1
atom       2.54334888     10.17339552      3.59683848 Cu1
atom       5.08669776      0.00000000      3.59683848 Cu1
atom       5.08669776      2.54334888      3.59683848 Cu1
atom       5.08669776      5.08669776      3.59683848 Cu1
atom       5.08669776      7.63004664      3.59683848 Cu1
atom       5.08669776     10.17339552      3.59683848 Cu1
atom       7.63004664      0.00000000      3.59683848 Cu1
atom       7.63004664      2.54334888      3.59683848 Cu1
atom       7.63004664      5.08669776      3.59683848 Cu1
atom       7.63004664      7.63004664      3.59683848 Cu1
atom       7.63004664     10.17339552      3.59683848 Cu1
atom      10.17339552      0.00000000      3.59683848 Cu1
atom      10.17339552      2.54334888      3.59683848 Cu1
atom      10.17339552      5.08669776      3.59683848 Cu1
atom      10.17339552      7.63004664      3.59683848 Cu1
atom      10.17339552     10.17339552      3.59683848 Cu1
atom      -1.27167444     -1.27167444      5.39525772 Cu1
atom      -1.27167444      1.27167444      5.39525772 Cu1
atom      -1.27167444      3.81502332      5.39525772 Cu1
atom      -1.27167444      6.35837220      5.39525772 Cu1
atom      -1.27167444      8.90172108      5.39525772 Cu1
atom       1.27167444     -1.27167444      5.39525772 Cu1
atom       1.27167444      1.27167444      5.39525772 Cu1
atom       1.27167444      3.81502332      5.39525772 Cu1
atom       1.27167444      6.35837220      5.39525772 Cu1
atom       1.27167444      8.90172108      5.39525772 Cu1
atom       3.81502332     -1.27167444      5.39525772 Cu1
atom       3.81502332      1.27167444      5.39525772 Cu1
atom       3.81502332      3.81502332      5.39525772 Cu1
atom       3.81502332      6.35837220      5.39525772 Cu1
atom       3.81502332      8.90172108      5.39525772 Cu1
atom       6.35837220     -1.27167444      5.39525772 Cu1
atom       6.35837220      1.27167444      5.39525772 Cu1
atom       6.35837220      3.81502332      5.39525772 Cu1
atom       6.35837220      6.35837220      5.39525772 Cu1
atom       6.35837220      8.90172108      5.39525772 Cu1
atom       8.90172108     -1.27167444      5.39525772 Cu1
atom       8.90172108      1.27167444      5.39525772 Cu1
atom       8.90172108      3.81502332      5.39525772 Cu1
atom       8.90172108      6.35837220      5.39525772 Cu1
atom       8.90172108      8.90172108      5.39525772 Cu1
atom       0.00000000      0.00000000      7.19367696 Cu1
atom       0.00000000      2.54334888      7.19367696 Cu1
atom       0.00000000      5.08669776      7.19367696 Cu1
atom       0.00000000      7.63004664      7.19367696 Cu1
atom       0.00000000     10.17339552      7.19367696 Cu1
atom       2.54334888      0.00000000      7.19367696 Cu1
atom       2.54334888      2.54334888      7.19367696 Cu1
atom       2.54334888      5.08669776      7.19367696 Cu1
atom       2.54334888      7.63004664      7.19367696 Cu1
atom       2.54334888     10.17339552      7.19367696 Cu1
atom       5.08669776      0.00000000      7.19367696 Cu1
atom       5.08669776      2.54334888      7.19367696 Cu1
atom       5.08669776      5.08669776      7.19367696 Cu1
atom       5.08669776      7.63004664      7.19367696 Cu1
atom       5.08669776     10.17339552      7.19367696 Cu1
atom       7.63004664      0.00000000      7.19367696 Cu1
atom       7.63004664      2.54334888      7.19367696 Cu1
atom       7.63004664      5.08669776      7.19367696 Cu1
atom       7.63004664      7.63004664      7.19367696 Cu1
atom       7.63004664     10.17339552      7.19367696 Cu1
atom      10.17339552      0.00000000      7.19367696 Cu1
atom      10.17339552      2.54334888      7.19367696 Cu1
atom      10.17339552      5.08669776      7.19367696 Cu1
atom      10.17339552      7.63004664      7.19367696 Cu1
atom      10.17339552     10.17339552      7.19367696 Cu1
atom      -1.27167444     -1.27167444      8.99209620 Cu1
atom      -1.27167444      1.27167444      8.99209620 Cu1
atom      -1.27167444      3.81502332      8.99209620 Cu1
atom      -1.27167444      6.35837220      8.99209620 Cu1
atom      -1.27167444      8.90172108      8.99209620 Cu1
atom       1.27167444     -1.27167444      8.99209620 Cu1
atom       1.27167444      1.27167444      8.99209620 Cu1
atom       1.27167444      3.81502332      8.99209620 Cu1
atom       1.27167444      6.35837220      8.99209620 Cu1
atom       1.27167444      8.90172108      8.99209620 Cu1
atom       3.81502332     -1.27167444      8.99209620 Cu1
atom       3.81502332      1.27167444      8.99209620 Cu1
atom       3.81502332      3.81502332      8.99209620 Cu1
atom       3.81502332      6.35837220      8.99209620 Cu1
atom       3.81502332      8.90172108      8.99209620 Cu1
atom       6.35837220     -1.27167444      8.99209620 Cu1
atom       6.35837220      1.27167444      8.99209620 Cu1
atom       6.35837220      3.81502332      8.99209620 Cu1
atom       6.35837220      6.35837220      8.99209620 Cu1
atom       6.35837220      8.90172108      8.99209620 Cu1
atom       8.90172108     -1.27167444      8.99209620 Cu1
atom       8.90172108      1.27167444      8.99209620 Cu1
atom       8.90172108      3.81502332      8.99209620 Cu1
atom       8.90172108      6.35837220      8.99209620 Cu1
atom       8.90172108      8.90172108      8.99209620 Cu1
atom       2.53763063     10.16954886     10.76803626 Cu
atom      10.17681523      5.09246269     10.76804573 Cu
atom      10.16920685      2.53755855     10.76805597 Cu
atom       5.09253543     10.17715298     10.76805523 Cu
atom      -0.00849767     10.16992725     10.78538692 Cu
atom      10.16981918     -0.00852301     10.78541888 Cu
atom      10.17671913      7.63855902     10.78541442 Cu
atom       7.63858625     10.17682975     10.78543863 Cu
atom      10.17338024     10.17338885     10.79750153 Cu
atom       0.02302231      2.53922235     10.80427891 Cu
atom       2.53920120      0.02330388     10.80435689 Cu
atom       5.09061923      7.60661464     10.80446894 Cu
atom       7.60632636      5.09063908     10.80455538 Cu
atom       0.01068330      0.01072844     10.80244312 Cu
atom       7.61919101      7.61923583     10.80251209 Cu
atom       0.01973453      7.61022214     10.80740779 Cu
atom       7.61011718      0.01984592     10.80752116 Cu
atom       0.02933360      5.08709918     10.81139221 Cu
atom       2.54290708      7.60033849     10.81156518 Cu
atom       5.08696640      0.02969089     10.81154517 Cu
atom       7.59998883      2.54303642     10.81172012 Cu
atom       2.54045598      2.54074872     10.80887873 Cu
atom       5.08882846      5.08912260     10.80906443 Cu
atom       2.54308410      5.08669989     10.82732128 Cu
atom       5.08632255      2.54347343     10.82731150 Cu
atom      -1.30364210      3.81469708     12.52398161 Cu
atom       3.81474848     -1.30295516     12.52413189 Cu
atom       3.81538586      8.93294988     12.52422355 Cu
atom       8.93226795      3.81533565     12.52438047 Cu
atom      -1.29425194      1.27251638     12.54158926 Cu
atom       1.27259131     -1.29394220     12.54166849 Cu
atom       6.35752529      8.92378739     12.54175946 Cu
atom       8.92346060      6.35745592     12.54184131 Cu
atom      -1.28489605      6.34735957     12.54187442 Cu
atom       1.28271403      8.91449697     12.54197030 Cu
atom       6.34739989     -1.28443647     12.54204758 Cu
atom       8.91404146      1.28267995     12.54215922 Cu
atom       3.81412684      3.81489684     12.54763888 Cu
atom      -1.26636854     -1.26642031     12.56038913 Cu
atom       8.89647995      8.89644550     12.56046870 Cu
atom      -1.26508811      8.89515368     12.56123547 Cu
atom       8.89518511     -1.26512604     12.56131463 Cu
atom       1.21690231      3.78637939     12.61892871 Cu
atom       3.78604111      1.21773713     12.61914589 Cu
atom       3.84323304      6.41231264     12.61953790 Cu
atom       6.41149551      3.84356759     12.61976429 Cu
atom       1.24223457      1.24244203     12.65799599 Cu
atom       6.38694252      6.38716983     12.65786634 Cu
atom       1.24877212      6.38080919     12.68907935 Cu
atom       6.38009637      1.24948291     12.68907444 Cu
atom       6.03359970      6.03690766     14.86807517 C
atom       4.71528916      6.50076425     14.79389327 C
atom       6.49743409      4.71866491     14.79441369 C
atom       3.51493871      5.74862194     14.70490826 C
atom       5.74527310      3.51824499     14.70521615 C
atom       2.22832639      6.37850421     14.82679840 C
atom       6.37501383      2.23169179     14.82748495 C
atom       3.30037600      4.32603115     14.61178587 C
atom       4.32267385      3.30369367     14.61185279 C
atom       1.24786844      5.39797423     14.82660543 C
atom       5.39441505      1.25124368     14.82729165 C
atom       1.87776443      4.11141381     14.70457478 C
atom       4.10796135      1.88109251     14.70487839 C
atom       1.12552163      2.91106668     14.79323887 C
atom       2.90748499      1.12891752     14.79375121 C
atom       1.58922694      1.59270231     14.86750887 C
atom       6.78150779      6.78496859     15.10857801 H
atom       4.57935039      7.55736231     14.99114266 H
atom       7.55395044      4.58273891     14.99202361 H
atom       2.09146601      7.42433700     15.05398775 H
atom       7.42081316      2.09479771     15.05475717 H
atom       0.20188706      5.53472008     15.05320735 H
atom       5.53111467      0.20528095     15.05395589 H
atom       0.06883014      3.04704032     14.99000489 H
atom       3.04336641      0.07230085     14.99088997 H
atom       0.84113203      0.84482108     15.10795989 H
