&CONTROL
  calculation = 'scf'
  etot_conv_thr =   2.0000000000d-05
  forc_conv_thr =   1.0000000000d-04
  outdir = '../qe_files/LiH'
  prefix = 'LiH'
  pseudo_dir = '/home/schu_e3/Pseudopotentials/'
  tprnfor = .true.
  tstress = .true.
  verbosity = 'high'
/
&SYSTEM
  degauss =   1.4699723600d-02
  !ecutrho =   4.8000000000d+02
  ecutwfc =   2.0000000000d+01
  celldm(1) = 2
  ibrav = 0
  nat = 2
  nosym = .false.
  ntyp = 2
  occupations = 'smearing'
  smearing = 'cold'
/
&ELECTRONS
  conv_thr =   4.0000000000d-10
  electron_maxstep = 80
  mixing_beta =   4.0000000000d-01
/
ATOMIC_SPECIES
H      1.00794 H_ONCV_PBE-1.2.upf
Li     6.941 Li_ONCV_PBE-1.2.upf
ATOMIC_POSITIONS crystal
H            0.0000000000      0.0000000000      0.0000000000 
Li           -0.5000000000      -0.5000000000      -0.5000000000 
K_POINTS gamma
CELL_PARAMETERS alat
     -1.0086193900      -1.0086193900       0.0000000000
     -1.0086193900       0.0000000000      -1.0086193900
     -0.0000000000      -1.0086193900      -1.0086193900

